16,5	0,0	15,2	8,3	0,0	0,0	0,0	0,0	0,0	8,0
5,4	5,3	0,0	9,0	17,3	0,0	0,0	9,9	0,0	0,0
0,0	0,0	13,3	0,0	14,4	5,3	0,0	0,0	20,0	0,0
14,4	0,0	5,7	0,0	0,0	0,0	18,7	0,0	0,0	0,0
0,0	10,4	0,0	9,4	7,3	0,0	0,0	9,0	0,0	0,0
0,0	7,2	6,0	0,0	10,6	10,6	0,0	0,0	5,6	0,0
0,0	9,5	0,0	14,7	0,0	0,0	5,6	0,0	0,0	9,4
10,8	0,0	17,8	0,0	0,0	0,0	0,0	0,0	0,0	19,5
0,0	13,5	0,0	12,5	18,4	0,0	0,0	6,4	0,0	0,0
0,0	0,0	10,9	0,0	0,0	19,6	16,9	0,0	0,0	7,5
									
3,9	5,0	2,8	3,0	3,1	3,7	3,4	3,6	3,9	2,9
